experiment/data/hgs-res/Vrp-Set-A-n34/Vrp-Set-A-n34-hgs/0.hgs1.vrp
NAME : 0
COMMENT : CVRP Instance
TYPE : CVRP
DIMENSION : 34
EDGE_WEIGHT_TYPE : EUC_2D
CAPACITY : 100
NODE_COORD_SECTION
1	73.0	39.0
2	67.0	91.0
3	39.0	21.0
4	3.0	9.0
5	97.0	15.0
6	91.0	65.0
7	55.0	75.0
8	55.0	71.0
9	57.0	85.0
10	21.0	15.0
11	47.0	57.0
12	51.0	97.0
13	11.0	11.0
14	43.0	59.0
15	63.0	69.0
16	55.0	77.0
17	35.0	11.0
18	27.0	91.0
19	49.0	25.0
20	29.0	93.0
21	71.0	27.0
22	31.0	43.0
23	27.0	9.0
24	67.0	99.0
25	87.0	81.0
26	23.0	81.0
27	89.0	33.0
28	71.0	91.0
29	19.0	77.0
30	65.0	77.0
31	87.0	79.0
32	19.0	83.0
33	1.0	59.0
34	55.0	7.0
DEMAND_SECTION
1	0
2	23
3	3
4	24
5	15
6	15
7	24
8	7
9	25
10	13
11	5
12	7
13	5
14	14
15	13
16	5
17	24
18	15
19	9
20	16
21	13
22	16
23	13
24	24
25	20
26	23
27	20
28	3
29	15
30	12
31	19
32	4
33	15
34	1
DEPOT_SECTION
1
-1
EOF
