experiment/data/hgs-res/Vrp-Set-A-n34/Vrp-Set-A-n34-hgs/0.hgs1.tour
Route #1: 20 33 16 22 3 12 9 2
Route #2: 4 26 5 30 24
Route #3: 7 6 15 8 29 14
Route #4: 27 1 23 11 19 17 10
Route #5: 18 21 32 28 31 25 13
Cost 780.936
